words_train/words_269_SAT.qaiger
aag 54 16 0 1 38
32
10
14
8
22
4
20
26
6
30
12
2
18
16
28
24
109
34 25 23
36 21 19
38 36 34
40 38 27
42 40 29
44 42 31
46 43 30
48 47 45
50 48 4
52 49 5
54 41 28
56 55 43
58 57 7
60 26 9
62 24 11
64 22 13
66 65 63
68 25 10
70 69 67
72 27 8
74 73 39
76 74 70
78 77 61
80 78 41
82 80 59
84 56 6
86 85 83
88 87 53
90 89 51
92 33 2
94 32 3
96 95 93
98 97 44
100 96 45
102 101 99
104 102 90
106 103 91
108 107 105
i0 1 x[7]
i1 2 z[4]
i2 2 z[6]
i3 2 z[3]
i4 1 x[2]
i5 2 z[1]
i6 1 x[1]
i7 1 x[4]
i8 2 z[2]
i9 1 x[6]
i10 2 z[5]
i11 2 z[0]
i12 1 x[0]
i13 2 z[7]
i14 1 x[5]
i15 1 x[3]
o0 bv[0]
c
simplified
  <=
    1 x
    or
      reverse
        2 z
      subtract
        1
        invert
          1
