words_train/words_269_SAT.qaiger.qdimacs
p cnf 54 115
a 9 10 11 12 13 14 15 16 0
e 1 2 3 4 5 6 7 8 17 18 19 20 21 22 23 24 25 26 27 28 29 30 31 32 33 34 35 36 37 38 39 40 41 42 43 44 45 46 47 48 49 50 51 52 53 54 0
12 11 17 0
-12 -17 0
-11 -17 0
10 9 18 0
-10 -18 0
-9 -18 0
-18 -17 19 0
18 -19 0
17 -19 0
-19 13 20 0
19 -20 0
-13 -20 0
-20 14 21 0
20 -21 0
-14 -21 0
-21 15 22 0
21 -22 0
-15 -22 0
21 -15 23 0
-21 -23 0
15 -23 0
23 22 24 0
-23 -24 0
-22 -24 0
-24 -2 25 0
24 -25 0
2 -25 0
24 2 26 0
-24 -26 0
-2 -26 0
20 -14 27 0
-20 -27 0
14 -27 0
27 21 28 0
-27 -28 0
-21 -28 0
28 3 29 0
-28 -29 0
-3 -29 0
-13 4 30 0
13 -30 0
-4 -30 0
-12 5 31 0
12 -31 0
-5 -31 0
-11 6 32 0
11 -32 0
-6 -32 0
32 31 33 0
-32 -33 0
-31 -33 0
12 -5 34 0
-12 -34 0
5 -34 0
34 33 35 0
-34 -35 0
-33 -35 0
13 -4 36 0
-13 -36 0
4 -36 0
36 19 37 0
-36 -37 0
-19 -37 0
-37 -35 38 0
37 -38 0
35 -38 0
38 30 39 0
-38 -39 0
-30 -39 0
-39 20 40 0
39 -40 0
-20 -40 0
-40 29 41 0
40 -41 0
-29 -41 0
-28 -3 42 0
28 -42 0
3 -42 0
42 41 43 0
-42 -43 0
-41 -43 0
43 26 44 0
-43 -44 0
-26 -44 0
44 25 45 0
-44 -45 0
-25 -45 0
16 -1 46 0
-16 -46 0
1 -46 0
-16 1 47 0
16 -47 0
-1 -47 0
47 46 48 0
-47 -48 0
-46 -48 0
48 -22 49 0
-48 -49 0
22 -49 0
-48 22 50 0
48 -50 0
-22 -50 0
50 49 51 0
-50 -51 0
-49 -51 0
-51 -45 52 0
51 -52 0
45 -52 0
51 45 53 0
-51 -53 0
-45 -53 0
53 52 54 0
-53 -54 0
-52 -54 0
-54 0
